lbl,CUST NO.,READY TIME,XCOORD.,YCOORD.,DEMAND,DUE DATE,SERVICE TIME
16,60,77,1,34,20,319,90
16,82,79,2,28,10,299,90
16,180,199,0,27,30,333,90
16,84,303,1,24,10,416,90
16,191,420,4,23,10,485,90
16,4,442,4,28,10,836,90
16,125,448,6,25,10,642,90
16,72,619,4,30,40,842,90
